(set-logic HORN)
(declare-fun !inv0 (Int Int (Array Int Int) (Array Int Int) Int Int ) Bool)
(declare-fun !inv1 (Int Int (Array Int Int) (Array Int Int) Int Int Bool Int ) Bool)
(assert (forall ((M@0 Int)(array@0 (Array Int Int))(N@0 Int)(subarray@0 (Array Int Int))(idx@0 Int)(i@0 Int)) (=> (and (= |idx@0| (- 1)) (= |i@0| 0) (<= |N@0| |M@0|) (> |N@0| 0) (> |M@0| 0)) (!inv0 |M@0| |N@0| |array@0| |subarray@0| |idx@0| |i@0|))))
(assert (forall ((M@0 Int)(N@0 Int)(array@0 (Array Int Int))(subarray@0 (Array Int Int))(idx@0 Int)(i@0 Int)(is_sub@0 Bool)(k@0 Int)) (=> (and (!inv0 |M@0| |N@0| |array@0| |subarray@0| |idx@0| |i@0|) (< |i@0| |M@0|) (>= (- |M@0| |i@0|) |N@0|) (= |is_sub@0| true) (= |k@0| 0)) (!inv1 |M@0| |N@0| |array@0| |subarray@0| |idx@0| |i@0| |is_sub@0| |k@0|))))
(assert (forall ((M@0 Int)(N@0 Int)(array@0 (Array Int Int))(subarray@0 (Array Int Int))(idx@0 Int)(i@0 Int)) (=> (and (!inv0 |M@0| |N@0| |array@0| |subarray@0| |idx@0| |i@0|) (not (< |i@0| |M@0|)) (not (= |idx@0| (- 1))) (not (>= |idx@0| 0))) false)))
(assert (forall ((M@0 Int)(N@0 Int)(array@0 (Array Int Int))(subarray@0 (Array Int Int))(idx@0 Int)(i@0 Int)) (=> (and (!inv0 |M@0| |N@0| |array@0| |subarray@0| |idx@0| |i@0|) (not (< |i@0| |M@0|)) (not (= |idx@0| (- 1))) (>= |idx@0| 0) (not (forall ((k@0 Int)) (=> (and (<= 0 |k@0|) (< |k@0| |N@0|)) (= (select |subarray@0| |k@0|) (select |array@0| (+ |idx@0| |k@0|))))))) false)))
(assert (forall ((M@0 Int)(N@0 Int)(array@0 (Array Int Int))(subarray@0 (Array Int Int))(idx@0 Int)(i@0 Int)(i@1 Int)(k@0 Int)(is_sub@0 Bool)(idx@1 Int)) (=> (and (!inv1 |M@0| |N@0| |array@0| |subarray@0| |idx@1| |i@0| |is_sub@0| |k@0|) (= |i@1| (+ |i@0| 1)) (not (and (= |is_sub@0| true) (< |k@0| |N@0|))) (= |is_sub@0| true) (= |idx@0| |i@0|)) (!inv0 |M@0| |N@0| |array@0| |subarray@0| |idx@0| |i@1|))))
(assert (forall ((M@0 Int)(N@0 Int)(array@0 (Array Int Int))(subarray@0 (Array Int Int))(idx@0 Int)(i@0 Int)(i@1 Int)) (=> (and (!inv0 |M@0| |N@0| |array@0| |subarray@0| |idx@0| |i@0|) (= |i@1| (+ |i@0| 1)) (< |i@0| |M@0|) (not (>= (- |M@0| |i@0|) |N@0|))) (!inv0 |M@0| |N@0| |array@0| |subarray@0| |idx@0| |i@1|))))
(assert (forall ((M@0 Int)(N@0 Int)(array@0 (Array Int Int))(subarray@0 (Array Int Int))(idx@0 Int)(i@0 Int)(is_sub@0 Bool)(k@0 Int)(k@1 Int)) (=> (and (!inv1 |M@0| |N@0| |array@0| |subarray@0| |idx@0| |i@0| |is_sub@0| |k@0|) (= |k@1| (+ |k@0| 1)) (not (not (= (select |array@0| (+ |i@0| |k@0|)) (select |subarray@0| |k@0|)))) (= |is_sub@0| true) (< |k@0| |N@0|)) (!inv1 |M@0| |N@0| |array@0| |subarray@0| |idx@0| |i@0| |is_sub@0| |k@1|))))
(assert (forall ((M@0 Int)(N@0 Int)(array@0 (Array Int Int))(subarray@0 (Array Int Int))(idx@0 Int)(i@0 Int)(i@1 Int)(k@0 Int)(is_sub@0 Bool)) (=> (and (!inv1 |M@0| |N@0| |array@0| |subarray@0| |idx@0| |i@0| |is_sub@0| |k@0|) (= |i@1| (+ |i@0| 1)) (not (and (= |is_sub@0| true) (< |k@0| |N@0|))) (not (= |is_sub@0| true))) (!inv0 |M@0| |N@0| |array@0| |subarray@0| |idx@0| |i@1|))))
(assert (forall ((M@0 Int)(N@0 Int)(array@0 (Array Int Int))(subarray@0 (Array Int Int))(idx@0 Int)(i@0 Int)(is_sub@0 Bool)(k@0 Int)(k@1 Int)(is_sub@1 Bool)) (=> (and (!inv1 |M@0| |N@0| |array@0| |subarray@0| |idx@0| |i@0| |is_sub@1| |k@0|) (= |k@1| (+ |k@0| 1)) (not (= (select |array@0| (+ |i@0| |k@0|)) (select |subarray@0| |k@0|))) (= |is_sub@0| false) (= |is_sub@1| true) (< |k@0| |N@0|)) (!inv1 |M@0| |N@0| |array@0| |subarray@0| |idx@0| |i@0| |is_sub@0| |k@1|))))
(check-sat)